\ This file has been generated by DOcplex
\ ENCODING=ISO-8859-1
\Problem name: minla_fav

Minimize
 obj: cmax
Subject To
 c1: x_1_0 - x_0_0 >= 1
 c2: x_2_0 - x_1_0 >= 3
 c3: x_0_1 - x_1_1 >= 8
 c4: x_2_1 - x_0_1 >= 5
 c5: x_2_2 - x_0_2 >= 5
 c6: x_1_2 - x_2_2 >= 4
 c7: x_0_3 - x_2_3 >= 4
 c8: x_1_3 - x_0_3 >= 10
 c9: x_0_0 - x_0_1 + 66 z_0_0_1 - 5 s_0_2_0_1 - 10 s_0_3_0_1 >= 5
 c10: x_0_1 - x_0_0 - 66 z_0_0_1 - 5 s_0_2_0_1 - 10 s_0_3_0_1 >= -65
 c11: x_0_0 - x_0_2 + 66 z_0_0_2 - 5 s_0_1_0_2 - 10 s_0_3_0_2 >= 5
 c12: x_0_2 - x_0_0 - 66 z_0_0_2 - 5 s_0_1_0_2 - 10 s_0_3_0_2 >= -65
 c13: x_0_0 - x_0_3 + 66 z_0_0_3 - 5 s_0_1_0_3 - 5 s_0_2_0_3 >= 10
 c14: x_0_3 - x_0_0 - 66 z_0_0_3 - 5 s_0_1_0_3 - 5 s_0_2_0_3 >= -65
 c15: x_0_1 - x_0_2 + 66 z_0_1_2 - s_0_0_1_2 - 10 s_0_3_1_2 >= 5
 c16: x_0_2 - x_0_1 - 66 z_0_1_2 - s_0_0_1_2 - 10 s_0_3_1_2 >= -61
 c17: x_0_1 - x_0_3 + 66 z_0_1_3 - s_0_0_1_3 - 5 s_0_2_1_3 >= 10
 c18: x_0_3 - x_0_1 - 66 z_0_1_3 - s_0_0_1_3 - 5 s_0_2_1_3 >= -61
 c19: x_0_2 - x_0_3 + 66 z_0_2_3 - s_0_0_2_3 - 5 s_0_1_2_3 >= 10
 c20: x_0_3 - x_0_2 - 66 z_0_2_3 - s_0_0_2_3 - 5 s_0_1_2_3 >= -61
 c21: x_1_0 - x_1_1 + 66 z_1_0_1 - 8 s_1_2_0_1 - 6 s_1_3_0_1 >= 8
 c22: x_1_1 - x_1_0 - 66 z_1_0_1 - 8 s_1_2_0_1 - 6 s_1_3_0_1 >= -63
 c23: x_1_0 - x_1_2 + 66 z_1_0_2 - 8 s_1_1_0_2 - 6 s_1_3_0_2 >= 8
 c24: x_1_2 - x_1_0 - 66 z_1_0_2 - 8 s_1_1_0_2 - 6 s_1_3_0_2 >= -63
 c25: x_1_0 - x_1_3 + 66 z_1_0_3 - 8 s_1_1_0_3 - 8 s_1_2_0_3 >= 6
 c26: x_1_3 - x_1_0 - 66 z_1_0_3 - 8 s_1_1_0_3 - 8 s_1_2_0_3 >= -63
 c27: x_1_1 - x_1_2 + 66 z_1_1_2 - 3 s_1_0_1_2 - 6 s_1_3_1_2 >= 8
 c28: x_1_2 - x_1_1 - 66 z_1_1_2 - 3 s_1_0_1_2 - 6 s_1_3_1_2 >= -58
 c29: x_1_1 - x_1_3 + 66 z_1_1_3 - 3 s_1_0_1_3 - 8 s_1_2_1_3 >= 6
 c30: x_1_3 - x_1_1 - 66 z_1_1_3 - 3 s_1_0_1_3 - 8 s_1_2_1_3 >= -58
 c31: x_1_2 - x_1_3 + 66 z_1_2_3 - 3 s_1_0_2_3 - 8 s_1_1_2_3 >= 6
 c32: x_1_3 - x_1_2 - 66 z_1_2_3 - 3 s_1_0_2_3 - 8 s_1_1_2_3 >= -58
 c33: x_2_0 - x_2_1 + 66 z_2_0_1 - 4 s_2_2_0_1 - 4 s_2_3_0_1 >= 10
 c34: x_2_1 - x_2_0 - 66 z_2_0_1 - 4 s_2_2_0_1 - 4 s_2_3_0_1 >= -64
 c35: x_2_0 - x_2_2 + 66 z_2_0_2 - 10 s_2_1_0_2 - 4 s_2_3_0_2 >= 4
 c36: x_2_2 - x_2_0 - 66 z_2_0_2 - 10 s_2_1_0_2 - 4 s_2_3_0_2 >= -64
 c37: x_2_0 - x_2_3 + 66 z_2_0_3 - 10 s_2_1_0_3 - 4 s_2_2_0_3 >= 4
 c38: x_2_3 - x_2_0 - 66 z_2_0_3 - 10 s_2_1_0_3 - 4 s_2_2_0_3 >= -64
 c39: x_2_1 - x_2_2 + 66 z_2_1_2 - 2 s_2_0_1_2 - 4 s_2_3_1_2 >= 4
 c40: x_2_2 - x_2_1 - 66 z_2_1_2 - 2 s_2_0_1_2 - 4 s_2_3_1_2 >= -56
 c41: x_2_1 - x_2_3 + 66 z_2_1_3 - 2 s_2_0_1_3 - 4 s_2_2_1_3 >= 4
 c42: x_2_3 - x_2_1 - 66 z_2_1_3 - 2 s_2_0_1_3 - 4 s_2_2_1_3 >= -56
 c43: x_2_2 - x_2_3 + 66 z_2_2_3 - 2 s_2_0_2_3 - 10 s_2_1_2_3 >= 4
 c44: x_2_3 - x_2_2 - 66 z_2_2_3 - 2 s_2_0_2_3 - 10 s_2_1_2_3 >= -62
 c45: s_0_2_0_1 - z_0_0_1 - z_0_0_2 + z_0_1_2 >= -1
 c46: s_0_2_0_1 + z_0_0_1 + z_0_0_2 - z_0_1_2 >= 0
 c47: s_0_3_0_1 - z_0_0_1 - z_0_0_3 + z_0_1_3 >= -1
 c48: s_0_3_0_1 + z_0_0_1 + z_0_0_3 - z_0_1_3 >= 0
 c49: s_0_1_0_2 - z_0_0_1 - z_0_0_2 - z_0_1_2 >= -2
 c50: s_0_1_0_2 + z_0_0_1 + z_0_0_2 + z_0_1_2 >= 1
 c51: s_0_3_0_2 - z_0_0_2 - z_0_0_3 + z_0_2_3 >= -1
 c52: s_0_3_0_2 + z_0_0_2 + z_0_0_3 - z_0_2_3 >= 0
 c53: s_0_1_0_3 - z_0_0_1 - z_0_0_3 - z_0_1_3 >= -2
 c54: s_0_1_0_3 + z_0_0_1 + z_0_0_3 + z_0_1_3 >= 1
 c55: s_0_2_0_3 - z_0_0_2 - z_0_0_3 - z_0_2_3 >= -2
 c56: s_0_2_0_3 + z_0_0_2 + z_0_0_3 + z_0_2_3 >= 1
 c57: s_0_0_1_2 + z_0_0_1 - z_0_0_2 - z_0_1_2 >= -1
 c58: s_0_0_1_2 - z_0_0_1 + z_0_0_2 + z_0_1_2 >= 0
 c59: s_0_3_1_2 - z_0_1_2 - z_0_1_3 + z_0_2_3 >= -1
 c60: s_0_3_1_2 + z_0_1_2 + z_0_1_3 - z_0_2_3 >= 0
 c61: s_0_0_1_3 + z_0_0_1 - z_0_0_3 - z_0_1_3 >= -1
 c62: s_0_0_1_3 - z_0_0_1 + z_0_0_3 + z_0_1_3 >= 0
 c63: s_0_2_1_3 - z_0_1_2 - z_0_1_3 - z_0_2_3 >= -2
 c64: s_0_2_1_3 + z_0_1_2 + z_0_1_3 + z_0_2_3 >= 1
 c65: s_0_0_2_3 + z_0_0_2 - z_0_0_3 - z_0_2_3 >= -1
 c66: s_0_0_2_3 - z_0_0_2 + z_0_0_3 + z_0_2_3 >= 0
 c67: s_0_1_2_3 + z_0_1_2 - z_0_1_3 - z_0_2_3 >= -1
 c68: s_0_1_2_3 - z_0_1_2 + z_0_1_3 + z_0_2_3 >= 0
 c69: s_1_2_0_1 - z_1_0_1 - z_1_0_2 + z_1_1_2 >= -1
 c70: s_1_2_0_1 + z_1_0_1 + z_1_0_2 - z_1_1_2 >= 0
 c71: s_1_3_0_1 - z_1_0_1 - z_1_0_3 + z_1_1_3 >= -1
 c72: s_1_3_0_1 + z_1_0_1 + z_1_0_3 - z_1_1_3 >= 0
 c73: s_1_1_0_2 - z_1_0_1 - z_1_0_2 - z_1_1_2 >= -2
 c74: s_1_1_0_2 + z_1_0_1 + z_1_0_2 + z_1_1_2 >= 1
 c75: s_1_3_0_2 - z_1_0_2 - z_1_0_3 + z_1_2_3 >= -1
 c76: s_1_3_0_2 + z_1_0_2 + z_1_0_3 - z_1_2_3 >= 0
 c77: s_1_1_0_3 - z_1_0_1 - z_1_0_3 - z_1_1_3 >= -2
 c78: s_1_1_0_3 + z_1_0_1 + z_1_0_3 + z_1_1_3 >= 1
 c79: s_1_2_0_3 - z_1_0_2 - z_1_0_3 - z_1_2_3 >= -2
 c80: s_1_2_0_3 + z_1_0_2 + z_1_0_3 + z_1_2_3 >= 1
 c81: s_1_0_1_2 + z_1_0_1 - z_1_0_2 - z_1_1_2 >= -1
 c82: s_1_0_1_2 - z_1_0_1 + z_1_0_2 + z_1_1_2 >= 0
 c83: s_1_3_1_2 - z_1_1_2 - z_1_1_3 + z_1_2_3 >= -1
 c84: s_1_3_1_2 + z_1_1_2 + z_1_1_3 - z_1_2_3 >= 0
 c85: s_1_0_1_3 + z_1_0_1 - z_1_0_3 - z_1_1_3 >= -1
 c86: s_1_0_1_3 - z_1_0_1 + z_1_0_3 + z_1_1_3 >= 0
 c87: s_1_2_1_3 - z_1_1_2 - z_1_1_3 - z_1_2_3 >= -2
 c88: s_1_2_1_3 + z_1_1_2 + z_1_1_3 + z_1_2_3 >= 1
 c89: s_1_0_2_3 + z_1_0_2 - z_1_0_3 - z_1_2_3 >= -1
 c90: s_1_0_2_3 - z_1_0_2 + z_1_0_3 + z_1_2_3 >= 0
 c91: s_1_1_2_3 + z_1_1_2 - z_1_1_3 - z_1_2_3 >= -1
 c92: s_1_1_2_3 - z_1_1_2 + z_1_1_3 + z_1_2_3 >= 0
 c93: s_2_2_0_1 - z_2_0_1 - z_2_0_2 + z_2_1_2 >= -1
 c94: s_2_2_0_1 + z_2_0_1 + z_2_0_2 - z_2_1_2 >= 0
 c95: s_2_3_0_1 - z_2_0_1 - z_2_0_3 + z_2_1_3 >= -1
 c96: s_2_3_0_1 + z_2_0_1 + z_2_0_3 - z_2_1_3 >= 0
 c97: s_2_1_0_2 - z_2_0_1 - z_2_0_2 - z_2_1_2 >= -2
 c98: s_2_1_0_2 + z_2_0_1 + z_2_0_2 + z_2_1_2 >= 1
 c99: s_2_3_0_2 - z_2_0_2 - z_2_0_3 + z_2_2_3 >= -1
 c100: s_2_3_0_2 + z_2_0_2 + z_2_0_3 - z_2_2_3 >= 0
 c101: s_2_1_0_3 - z_2_0_1 - z_2_0_3 - z_2_1_3 >= -2
 c102: s_2_1_0_3 + z_2_0_1 + z_2_0_3 + z_2_1_3 >= 1
 c103: s_2_2_0_3 - z_2_0_2 - z_2_0_3 - z_2_2_3 >= -2
 c104: s_2_2_0_3 + z_2_0_2 + z_2_0_3 + z_2_2_3 >= 1
 c105: s_2_0_1_2 + z_2_0_1 - z_2_0_2 - z_2_1_2 >= -1
 c106: s_2_0_1_2 - z_2_0_1 + z_2_0_2 + z_2_1_2 >= 0
 c107: s_2_3_1_2 - z_2_1_2 - z_2_1_3 + z_2_2_3 >= -1
 c108: s_2_3_1_2 + z_2_1_2 + z_2_1_3 - z_2_2_3 >= 0
 c109: s_2_0_1_3 + z_2_0_1 - z_2_0_3 - z_2_1_3 >= -1
 c110: s_2_0_1_3 - z_2_0_1 + z_2_0_3 + z_2_1_3 >= 0
 c111: s_2_2_1_3 - z_2_1_2 - z_2_1_3 - z_2_2_3 >= -2
 c112: s_2_2_1_3 + z_2_1_2 + z_2_1_3 + z_2_2_3 >= 1
 c113: s_2_0_2_3 + z_2_0_2 - z_2_0_3 - z_2_2_3 >= -1
 c114: s_2_0_2_3 - z_2_0_2 + z_2_0_3 + z_2_2_3 >= 0
 c115: s_2_1_2_3 + z_2_1_2 - z_2_1_3 - z_2_2_3 >= -1
 c116: s_2_1_2_3 - z_2_1_2 + z_2_1_3 + z_2_2_3 >= 0
 c117: x_0_0 + 5 z_0_0_1 + 5 z_0_0_2 + 10 z_0_0_3 >= 20
 c118: x_0_1 - z_0_0_1 + 5 z_0_1_2 + 10 z_0_1_3 >= 15
 c119: x_0_2 - z_0_0_2 - 5 z_0_1_2 + 10 z_0_2_3 >= 10
 c120: x_0_3 - z_0_0_3 - 5 z_0_1_3 - 5 z_0_2_3 >= 0
 c121: x_1_0 + 8 z_1_0_1 + 8 z_1_0_2 + 6 z_1_0_3 >= 22
 c122: x_1_1 - 3 z_1_0_1 + 8 z_1_1_2 + 6 z_1_1_3 >= 14
 c123: x_1_2 - 3 z_1_0_2 - 8 z_1_1_2 + 6 z_1_2_3 >= 6
 c124: x_1_3 - 3 z_1_0_3 - 8 z_1_1_3 - 8 z_1_2_3 >= 0
 c125: x_2_0 + 10 z_2_0_1 + 4 z_2_0_2 + 4 z_2_0_3 >= 18
 c126: x_2_1 - 2 z_2_0_1 + 4 z_2_1_2 + 4 z_2_1_3 >= 8
 c127: x_2_2 - 2 z_2_0_2 - 10 z_2_1_2 + 4 z_2_2_3 >= 4
 c128: x_2_3 - 2 z_2_0_3 - 10 z_2_1_3 - 4 z_2_2_3 >= 0
 c129: x_0_1 - z_0_0_1 >= 0
 c130: x_0_0 + 13 z_0_0_1 >= 13
 c131: x_0_2 - z_0_0_2 >= 0
 c132: x_0_0 + 5 z_0_0_2 >= 5
 c133: x_0_2 - 13 z_0_1_2 >= 0
 c134: x_0_1 + 5 z_0_1_2 >= 5
 c135: x_0_3 - z_0_0_3 >= 0
 c136: x_0_0 + 14 z_0_0_3 >= 14
 c137: x_0_3 - 13 z_0_1_3 >= 0
 c138: x_0_1 + 14 z_0_1_3 >= 14
 c139: x_0_3 - 5 z_0_2_3 >= 0
 c140: x_0_2 + 14 z_0_2_3 >= 14
 c141: x_1_1 - 4 z_1_0_1 >= 0
 c142: x_1_0 + 8 z_1_0_1 >= 8
 c143: x_1_2 - 4 z_1_0_2 >= 0
 c144: x_1_0 + 17 z_1_0_2 >= 17
 c145: x_1_2 - 8 z_1_1_2 >= 0
 c146: x_1_1 + 17 z_1_1_2 >= 17
 c147: x_1_3 - 4 z_1_0_3 >= 0
 c148: x_1_0 + 20 z_1_0_3 >= 20
 c149: x_1_3 - 8 z_1_1_3 >= 0
 c150: x_1_1 + 20 z_1_1_3 >= 20
 c151: x_1_3 - 17 z_1_2_3 >= 0
 c152: x_1_2 + 20 z_1_2_3 >= 20
 c153: x_2_1 - 6 z_2_0_1 >= 0
 c154: x_2_0 + 23 z_2_0_1 >= 23
 c155: x_2_2 - 6 z_2_0_2 >= 0
 c156: x_2_0 + 9 z_2_0_2 >= 9
 c157: x_2_2 - 23 z_2_1_2 >= 0
 c158: x_2_1 + 9 z_2_1_2 >= 9
 c159: x_2_3 - 6 z_2_0_3 >= 0
 c160: x_2_0 + 4 z_2_0_3 >= 4
 c161: x_2_3 - 23 z_2_1_3 >= 0
 c162: x_2_1 + 4 z_2_1_3 >= 4
 c163: x_2_3 - 9 z_2_2_3 >= 0
 c164: x_2_2 + 4 z_2_2_3 >= 4
 c165: cmax - x_0_0 - 15 z_0_0_1 >= 1
 c166: cmax - x_0_1 + 6 z_0_0_1 >= 11
 c167: cmax - x_0_0 - 17 z_0_0_2 >= 1
 c168: cmax - x_0_2 + 6 z_0_0_2 >= 11
 c169: cmax - x_0_0 - 16 z_0_0_3 >= 1
 c170: cmax - x_0_3 + 6 z_0_0_3 >= 16
 c171: cmax - x_0_1 - 17 z_0_1_2 >= 5
 c172: cmax - x_0_2 + 15 z_0_1_2 >= 20
 c173: cmax - x_0_1 - 16 z_0_1_3 >= 5
 c174: cmax - x_0_3 + 15 z_0_1_3 >= 25
 c175: cmax - x_0_2 - 16 z_0_2_3 >= 5
 c176: cmax - x_0_3 + 17 z_0_2_3 >= 27
 c177: cmax - x_1_0 - 23 z_1_0_1 >= 3
 c178: cmax - x_1_1 + 5 z_1_0_1 >= 13
 c179: cmax - x_1_0 - 8 z_1_0_2 >= 3
 c180: cmax - x_1_2 + 5 z_1_0_2 >= 13
 c181: cmax - x_1_0 - 6 z_1_0_3 >= 3
 c182: cmax - x_1_3 + 5 z_1_0_3 >= 11
 c183: cmax - x_1_1 - 8 z_1_1_2 >= 8
 c184: cmax - x_1_2 + 23 z_1_1_2 >= 31
 c185: cmax - x_1_1 - 6 z_1_1_3 >= 8
 c186: cmax - x_1_3 + 23 z_1_1_3 >= 29
 c187: cmax - x_1_2 - 6 z_1_2_3 >= 8
 c188: cmax - x_1_3 + 8 z_1_2_3 >= 14
 c189: cmax - x_2_0 - 10 z_2_0_1 >= 2
 c190: cmax - x_2_1 + 2 z_2_0_1 >= 12
 c191: cmax - x_2_0 - 12 z_2_0_2 >= 2
 c192: cmax - x_2_2 + 2 z_2_0_2 >= 6
 c193: cmax - x_2_0 - 20 z_2_0_3 >= 2
 c194: cmax - x_2_3 + 2 z_2_0_3 >= 6
 c195: cmax - x_2_1 - 12 z_2_1_2 >= 10
 c196: cmax - x_2_2 + 10 z_2_1_2 >= 14
 c197: cmax - x_2_1 - 20 z_2_1_3 >= 10
 c198: cmax - x_2_3 + 10 z_2_1_3 >= 14
 c199: cmax - x_2_2 - 20 z_2_2_3 >= 4
 c200: cmax - x_2_3 + 12 z_2_2_3 >= 16
 c201: cmax - x_0_0 >= 6
 c202: cmax - x_0_1 >= 15
 c203: cmax - x_0_2 >= 17
 c204: cmax - x_0_3 >= 16
 c205: cmax - x_1_0 >= 5
 c206: cmax - x_1_1 >= 23
 c207: cmax - x_1_2 >= 8
 c208: cmax - x_1_3 >= 6
 c209: cmax - x_2_0 >= 2
 c210: cmax - x_2_1 >= 10
 c211: cmax - x_2_2 >= 12
 c212: cmax - x_2_3 >= 20

Bounds
       z_0_0_1 <= 1
       z_0_0_2 <= 1
       z_0_0_3 <= 1
       z_0_1_2 <= 1
       z_0_1_3 <= 1
       z_0_2_3 <= 1
       z_1_0_1 <= 1
       z_1_0_2 <= 1
       z_1_0_3 <= 1
       z_1_1_2 <= 1
       z_1_1_3 <= 1
       z_1_2_3 <= 1
       z_2_0_1 <= 1
       z_2_0_2 <= 1
       z_2_0_3 <= 1
       z_2_1_2 <= 1
       z_2_1_3 <= 1
       z_2_2_3 <= 1
 23 <= cmax
       s_0_2_0_1 <= 1
       s_0_3_0_1 <= 1
       s_0_1_0_2 <= 1
       s_0_3_0_2 <= 1
       s_0_1_0_3 <= 1
       s_0_2_0_3 <= 1
       s_0_0_1_2 <= 1
       s_0_3_1_2 <= 1
       s_0_0_1_3 <= 1
       s_0_2_1_3 <= 1
       s_0_0_2_3 <= 1
       s_0_1_2_3 <= 1
       s_1_2_0_1 <= 1
       s_1_3_0_1 <= 1
       s_1_1_0_2 <= 1
       s_1_3_0_2 <= 1
       s_1_1_0_3 <= 1
       s_1_2_0_3 <= 1
       s_1_0_1_2 <= 1
       s_1_3_1_2 <= 1
       s_1_0_1_3 <= 1
       s_1_2_1_3 <= 1
       s_1_0_2_3 <= 1
       s_1_1_2_3 <= 1
       s_2_2_0_1 <= 1
       s_2_3_0_1 <= 1
       s_2_1_0_2 <= 1
       s_2_3_0_2 <= 1
       s_2_1_0_3 <= 1
       s_2_2_0_3 <= 1
       s_2_0_1_2 <= 1
       s_2_3_1_2 <= 1
       s_2_0_1_3 <= 1
       s_2_2_1_3 <= 1
       s_2_0_2_3 <= 1
       s_2_1_2_3 <= 1
End
